# Solution for model micodag
# Objective value = 8.0683738581030475e+00
s_0_1 0
s_1_0 0
s_0_2 0
s_2_0 0
s_0_4 0
s_4_0 2.6019413005495551e-01
s_1_2 0
s_2_1 3.9181294734045657e-01
s_1_3 0
s_3_1 2.3013209599999085e-01
s_2_4 0
s_4_2 4.2777009862938287e-01
s_4_5 0
s_5_4 6.6967497806396525e-01
s_0_0 6.5811919924996376e-01
s_1_1 7.4782871308988152e-01
s_2_2 7.5795025696679774e-01
s_3_3 6.4579644548729487e-01
s_4_4 6.6987539611931934e-01
s_5_5 9.6603519636600876e-01
Gamma_0_0 8.1124546177464918e-01
Gamma_0_1 0
Gamma_0_2 0
Gamma_0_3 0
Gamma_0_4 0
Gamma_0_5 0
Gamma_1_0 0
Gamma_1_1 8.6477090208325236e-01
Gamma_1_2 0
Gamma_1_3 0
Gamma_1_4 0
Gamma_1_5 0
Gamma_2_0 0
Gamma_2_1 6.2594963642489365e-01
Gamma_2_2 8.7060338671911808e-01
Gamma_2_3 0
Gamma_2_4 0
Gamma_2_5 0
Gamma_3_0 0
Gamma_3_1 4.7972085216299637e-01
Gamma_3_2 0
Gamma_3_3 0.803614612539677
Gamma_3_4 0
Gamma_3_5 0
Gamma_4_0 -0.510092276019698
Gamma_4_1 0
Gamma_4_2 -6.5404135850065570e-01
Gamma_4_3 0
Gamma_4_4 0.818459159713739
Gamma_4_5 0
Gamma_5_0 0
Gamma_5_1 0
Gamma_5_2 0
Gamma_5_3 0
Gamma_5_4 -8.1833671435660593e-01
Gamma_5_5 9.8287089506506842e-01
psi_0 2
psi_1 3
psi_2 2
psi_3 0
psi_4 1
psi_5 0
g_0_0 0
g_0_1 0
g_0_2 0
g_0_3 0
g_0_4 0
g_0_5 0
g_1_0 0
g_1_1 0
g_1_2 0
g_1_3 0
g_1_4 0
g_1_5 0
g_2_0 0
g_2_1 1
g_2_2 0
g_2_3 0
g_2_4 0
g_2_5 0
g_3_0 0
g_3_1 1
g_3_2 0
g_3_3 0
g_3_4 0
g_3_5 0
g_4_0 1
g_4_1 0
g_4_2 1
g_4_3 0
g_4_4 0
g_4_5 0
g_5_0 0
g_5_1 0
g_5_2 0
g_5_3 0
g_5_4 1
g_5_5 0
T_0 4.1836921018787621e-01
T_1 2.9058132042594309e-01
T_2 2.7713751954748034e-01
T_3 4.3727092471880269e-01
T_4 4.0066355983411484e-01
T_5 3.4555010271859032e-02
